Reading model...
...model read.
creating competitive generators file...
...competitive generators recorded.
Loading data...
.. real-time data read.
Compiling instance...
...instance created.
Creating Offer Mitigation (model will solve as dispatch if TRUE)...
NOTE: storage offers will not be mitigated
...storage offer mitigation file created
Converting model to MPEC...
...converted
NOTE: initial MIP solve with only storage competitive to get feasible solution
Solving...

Welcome to IBM(R) ILOG(R) CPLEX(R) Interactive Optimizer 12.10.0.0
  with Simplex, Mixed Integer & Barrier Optimizers
5725-A06 5725-A29 5724-Y48 5724-Y49 5724-Y54 5724-Y55 5655-Y21
Copyright IBM Corp. 1988, 2019.  All Rights Reserved.

Type 'help' for a list of available commands.
Type 'help' followed by a command name for more
information on commands.

CPLEX> Logfile 'cplex.log' closed.
Logfile 'C:\Users\wenmi\Desktop\competitiveMPEC\logs\tmp8r_vmf_b.cplex.log' open.
CPLEX> New value for parallel optimization mode: -1
CPLEX> New value for mixed integer optimality gap tolerance: 0.05
CPLEX> New value for deterministic time limit in ticks: 100000
CPLEX> Problem 'C:\Users\wenmi\Desktop\competitiveMPEC\logs\tmpu0n78d28.pyomo.lp' read.
Read time = 0.31 sec. (27.41 ticks)
CPLEX> Problem name         : C:\Users\wenmi\Desktop\competitiveMPEC\logs\tmpu0n78d28.pyomo.lp
Objective sense      : Maximize
Variables            :  107779  [Nneg: 1,  Box: 44054,  Free: 8928,
                                 Binary: 54796]
Objective nonzeros   :   17522
Linear constraints   :  246995  [Less: 82866,  Greater: 118424,  Equal: 45705]
  Nonzeros           :  580829
  RHS nonzeros       :  134592

Variables            : Min LB: -5000.000        Max UB: 1000000.       
Objective nonzeros   : Min   : 0.1944444        Max   : 2500.000       
Linear constraints   :
  Nonzeros           : Min   : 0.1944444        Max   : 1000000.       
  RHS nonzeros       : Min   : 0.1944444        Max   : 1000000.       
CPLEX> Version identifier: 12.10.0.0 | 2019-11-26 | 843d4de2ae
CPXPARAM_Parallel                                -1
CPXPARAM_DetTimeLimit                            100000
CPXPARAM_MIP_Tolerances_MIPGap                   0.050000000000000003
Tried aggregator 3 times.
MIP Presolve eliminated 181950 rows and 41670 columns.
MIP Presolve added 6048 rows and 0 columns.
MIP Presolve modified 48812 coefficients.
Aggregator did 25814 substitutions.
Reduced MIP has 45279 rows, 38663 columns, and 125471 nonzeros.
Reduced MIP has 15207 binaries, 0 generals, 0 SOSs, and 0 indicators.
Presolve time = 0.34 sec. (336.48 ticks)
Probing fixed 905 vars, tightened 7033 bounds.
Probing time = 0.08 sec. (14.26 ticks)
Tried aggregator 2 times.
Detecting symmetries...
MIP Presolve eliminated 2048 rows and 1810 columns.
MIP Presolve modified 5521 coefficients.
Aggregator did 48 substitutions.
Reduced MIP has 43183 rows, 36805 columns, and 119421 nonzeros.
Reduced MIP has 14302 binaries, 0 generals, 0 SOSs, and 0 indicators.
Presolve time = 0.14 sec. (205.10 ticks)
Probing fixed 0 vars, tightened 169 bounds.
Probing time = 0.17 sec. (19.20 ticks)
Clique table members: 80414.
MIP emphasis: balance optimality and feasibility.
MIP search method: dynamic search.
Parallel mode: opportunistic, using up to 16 threads.
Root relaxation solution time = 0.58 sec. (1650.39 ticks)

        Nodes                                         Cuts/
   Node  Left     Objective  IInf  Best Integer    Best Bound    ItCnt     Gap

      0     0   -11375.8080   306                 -11375.8080    10219         
      0     0   -11375.8080   306                   Cuts: 426    10452         
      0     0   -11402.5758   306                    Cuts: 52    10506         
      0     0   -11402.5758   306                    Cuts: 38    10540         
      0     0   -11402.5758   306                     Cuts: 6    10544         
      0     0   -11402.5758   306                     Cuts: 7    10547         
      0     3   -12650.2213   228                 -11402.5758    10580         
Elapsed time = 5.38 sec. (5983.99 ticks, tree = 0.02 MB, solutions = 0)
    160    39   -11486.2607   216                 -11402.5758    10961         
    345    79   -11888.4762   207                 -11402.5758    11091         
    594   170   -11487.2888   182                 -11402.5758    12203         
    791   711   -13189.2158   160                 -11402.5758    13583         
   1173   503   -11486.2607   158                 -11402.5758    13175         
   1389   906   -11512.6328   123                 -11402.5758    13821         
   1703   941   -11928.0685   132                 -11402.5758    13856         
   2038  1572   -11512.6328    76                 -11402.5758    14627         
   2409  1584   -11487.2888    48                 -11402.5758    14639         
   3439  3169    infeasible                       -11402.5758    18857         
Elapsed time = 21.38 sec. (9111.05 ticks, tree = 45.22 MB, solutions = 1)
*  3949  2957      integral     0   -11402.9518   -11402.5758    17731    0.00%

Clique cuts applied:  32
Cover cuts applied:  2
Implied bound cuts applied:  20
Flow cuts applied:  215
Mixed integer rounding cuts applied:  14
Gomory fractional cuts applied:  1

Root node processing (before b&c):
  Real time             =    4.53 sec. (5908.61 ticks)
Parallel b&c, 16 threads:
  Real time             =   17.88 sec. (4037.69 ticks)
  Sync time (average)   =    0.21 sec.
  Wait time (average)   =    0.00 sec.
                          ------------
Total (root+branch&cut) =   22.41 sec. (9946.29 ticks)

Solution pool: 1 solution saved.

MIP - Integer optimal, tolerance (0.05/1e-06):  Objective = -1.1402951838e+04
Current MIP best bound = -1.1402575781e+04 (gap = 0.376057, 0.00%)
Solution time =   22.41 sec.  Iterations = 24328  Nodes = 3956 (22)
Deterministic time = 9946.60 ticks  (443.93 ticks/sec)

CPLEX> Incumbent solution written to file 'C:\Users\wenmi\Desktop\competitiveMPEC\logs\tmpdki39f4v.cplex.sol'.
CPLEX> NOTE: no warmstart specified for MIP iteration, default behavior is true
NOTE: resolving with all competitive generators using storage-only solution to warmstart
Solving...

Welcome to IBM(R) ILOG(R) CPLEX(R) Interactive Optimizer 12.10.0.0
  with Simplex, Mixed Integer & Barrier Optimizers
5725-A06 5725-A29 5724-Y48 5724-Y49 5724-Y54 5724-Y55 5655-Y21
Copyright IBM Corp. 1988, 2019.  All Rights Reserved.

Type 'help' for a list of available commands.
Type 'help' followed by a command name for more
information on commands.

CPLEX> Logfile 'cplex.log' closed.
Logfile 'C:\Users\wenmi\Desktop\competitiveMPEC\logs\tmp83p5dpqi.cplex.log' open.
CPLEX> New value for parallel optimization mode: -1
CPLEX> New value for mixed integer optimality gap tolerance: 0.05
CPLEX> New value for deterministic time limit in ticks: 100000
CPLEX> Problem 'C:\Users\wenmi\Desktop\competitiveMPEC\logs\tmprxw86o_4.pyomo.lp' read.
Read time = 0.31 sec. (27.45 ticks)
CPLEX> MIP start file 'C:\Users\wenmi\Desktop\competitiveMPEC\logs\tmpbg5splqj.cplex.mst' read.
CPLEX> Problem name         : C:\Users\wenmi\Desktop\competitiveMPEC\logs\tmprxw86o_4.pyomo.lp
Objective sense      : Maximize
Variables            :  109219  [Nneg: 1,  Box: 45494,  Free: 8928,
                                 Binary: 54796]
Objective nonzeros   :   18914
Linear constraints   :  246995  [Less: 82866,  Greater: 118424,  Equal: 45705]
  Nonzeros           :  580829
  RHS nonzeros       :  134592

Variables            : Min LB: -5000.000        Max UB: 1000000.       
Objective nonzeros   : Min   : 0.1944444        Max   : 2500.000       
Linear constraints   :
  Nonzeros           : Min   : 0.1944444        Max   : 1000000.       
  RHS nonzeros       : Min   : 0.1944444        Max   : 1000000.       
CPLEX> Version identifier: 12.10.0.0 | 2019-11-26 | 843d4de2ae
CPXPARAM_Parallel                                -1
CPXPARAM_DetTimeLimit                            100000
CPXPARAM_MIP_Tolerances_MIPGap                   0.050000000000000003
Warning:  No solution found from 1 MIP starts.
Retaining values of one MIP start for possible repair.
Tried aggregator 3 times.
MIP Presolve eliminated 181950 rows and 43110 columns.
MIP Presolve added 6048 rows and 0 columns.
MIP Presolve modified 48812 coefficients.
Aggregator did 25814 substitutions.
Reduced MIP has 45279 rows, 38663 columns, and 125471 nonzeros.
Reduced MIP has 15207 binaries, 0 generals, 0 SOSs, and 0 indicators.
Presolve time = 0.33 sec. (337.22 ticks)
Probing fixed 905 vars, tightened 7033 bounds.
Probing time = 0.06 sec. (14.26 ticks)
Tried aggregator 2 times.
Detecting symmetries...
MIP Presolve eliminated 2048 rows and 1810 columns.
MIP Presolve modified 5521 coefficients.
Aggregator did 48 substitutions.
Reduced MIP has 43183 rows, 36805 columns, and 119421 nonzeros.
Reduced MIP has 14302 binaries, 0 generals, 0 SOSs, and 0 indicators.
Presolve time = 0.13 sec. (205.10 ticks)
Probing fixed 0 vars, tightened 169 bounds.
Probing time = 0.17 sec. (19.20 ticks)
Clique table members: 80414.
MIP emphasis: balance optimality and feasibility.
MIP search method: dynamic search.
Parallel mode: opportunistic, using up to 16 threads.
Root relaxation solution time = 0.59 sec. (1651.70 ticks)

        Nodes                                         Cuts/
   Node  Left     Objective  IInf  Best Integer    Best Bound    ItCnt     Gap

      0     0    -6971.6115   315                  -6971.6115    10235         
      0     0    -6971.6115   315                   Cuts: 467    10474         
      0     0    -6998.3793   315                    Cuts: 50    10530         
      0     0    -6998.3793   315                    Cuts: 39    10567         
      0     0    -6998.3793   315                 Flowcuts: 4    10572         
      0     0    -6998.3793   315                 Flowcuts: 3    10576         
Repair heuristic found nothing.
      0     2    -6998.3793   242                  -6998.3793    10576         
Elapsed time = 6.59 sec. (6346.51 ticks, tree = 0.02 MB, solutions = 0)
     50    29    infeasible                        -6998.3793    10934         
    245    41    infeasible                        -6998.3793    12516         
    448   182    -7296.8030   205                  -6998.3793    15388         
    705   212    -7127.7050   188                  -6998.3793    15458         
    892   477    -7583.9998   189                  -6998.3793    16638         
   1171   586    -7168.0885   146                  -6998.3793    16757         
   1459   739    -6998.6088   162                  -6998.3793    16951         
   1790  1089    -7168.0885    81                  -6998.3793    17923         
   2104  1205    -7167.9994    37                  -6998.3793    18252         
*  2617  1467      integral     0    -6999.1451    -6998.3793    19373    0.01%
   2886  2080    -7793.3684    33    -6999.1451    -6998.3793    21907    0.01%
Elapsed time = 19.64 sec. (9455.14 ticks, tree = 30.89 MB, solutions = 2)
*  2969  2147      integral     0    -6998.6088    -6998.3793    22309    0.00%

Clique cuts applied:  48
Cover cuts applied:  5
Implied bound cuts applied:  31
Flow cuts applied:  244
Mixed integer rounding cuts applied:  12
Gomory fractional cuts applied:  3

Root node processing (before b&c):
  Real time             =    5.09 sec. (6226.05 ticks)
Parallel b&c, 16 threads:
  Real time             =   14.89 sec. (3768.26 ticks)
  Sync time (average)   =    0.35 sec.
  Wait time (average)   =    0.00 sec.
                          ------------
Total (root+branch&cut) =   19.98 sec. (9994.31 ticks)

Solution pool: 2 solutions saved.

MIP - Integer optimal, tolerance (0.05/1e-06):  Objective = -6.9986087711e+03
Current MIP best bound = -6.9983792666e+03 (gap = 0.229505, 0.00%)
Solution time =   19.98 sec.  Iterations = 26867  Nodes = 2997 (24)
Deterministic time = 9994.62 ticks  (500.13 ticks/sec)

CPLEX> Incumbent solution written to file 'C:\Users\wenmi\Desktop\competitiveMPEC\logs\tmp6vsw_9rw.cplex.sol'.
CPLEX> Exporting results... 
